Version identifier: 20.1.0.0 | 2020-11-10 | 9bedb6d68
CPXPARAM_Threads                                 1
CPXPARAM_TimeLimit                               7200
CPXPARAM_MIP_Tolerances_MIPGap                   0
Generic callback                                 0x60
1 of 1 MIP starts provided solutions.
MIP start 'm1' defined initial solution with objective 1000.8231.
Tried aggregator 1 time.
Reduced MIP has 501001 rows, 500501 columns, and 1500500 nonzeros.
Reduced MIP has 500 binaries, 0 generals, 0 SOSs, and 0 indicators.
Presolve time = 0.46 sec. (400.65 ticks)
Probing time = 0.06 sec. (62.52 ticks)
Tried aggregator 1 time.
Reduced MIP has 501001 rows, 500501 columns, and 1500500 nonzeros.
Reduced MIP has 500 binaries, 0 generals, 0 SOSs, and 0 indicators.
Presolve time = 0.45 sec. (392.53 ticks)
Probing time = 0.06 sec. (62.52 ticks)
MIP emphasis: balance optimality and feasibility.
MIP search method: dynamic search.
Parallel mode: none, using 1 thread.
Root relaxation solution time = 0.17 sec. (192.92 ticks)

        Nodes                                         Cuts/
   Node  Left     Objective  IInf  Best Integer    Best Bound    ItCnt     Gap

*     0+    0                         1000.8231     5432.0000           442.75%
      0     0     1004.8565     4     1000.8231     5432.0000        0  442.75%
      0     2     1004.8565     4     1000.8231     1004.8560        0    0.40%
Elapsed time = 814.12 sec. (687543.18 ticks, tree = 0.01 MB, solutions = 1)
      1     3     1002.0688     2     1000.8231     1004.8560     2363    0.40%
      2     4     1001.7900     6     1000.8231     1002.0688    13870    0.12%
*     3     1      integral     0     1001.9116     1002.0688    13875    0.02%
      3     1     1001.9116     0     1001.9116     1002.0688    13875    0.02%
*     4     0      integral     0     1002.0307     1002.0688    14248    0.00%
      4     0     1002.0307     0     1002.0307     1002.0307    14248    0.00%

User cuts applied:  15

Root node processing (before b&c):
  Real time             =  814.03 sec. (687459.98 ticks)
Sequential b&c:
  Real time             =  399.47 sec. (261584.81 ticks)
                          ------------
Total (root+branch&cut) = 1213.50 sec. (949044.79 ticks)
@Parameters: 
is_S_cut                                true
is_add_all_yinF                         true
is_start_value                          true
is_usercut                              true
is_visualization                        false
uc_only_rootnode                        false

data                                    Qi
fn                                      data/Qi/instance_1000_500.csv
mode                                    ZLP
solver                                  cplex

p                                       2
r                                       50

EPS                                     1.0e-06
EPS_vio                                 1.0e-04
beta                                    0.10
gap                                     0.00
nodelimit                               Inf
timelimit                               7200.00


@PrintInfos
ItCnt: 14248
Current gap: 0.00 %
Termination Status: OPTIMAL
Primal Status: FEASIBLE_POINT
Solve Time: 1213.50 sec
Objective Value: 1002.030712
Number of Nodes:      5

CutInfo: [phase] num / time (sec) 
ZLP             [phase1]     0 / 0.00 [rLC]     4 / 7.27 [rUC]     2 / 3.49 [sLC]     2 / 4.13 [sUC]    11 / 22.93 
OldSubmodular   [phase1]     0 / 0.00 [rLC]     0 / 0.00 [rUC]     0 / 0.00 [sLC]     0 / 0.00 [sUC]     0 / 0.00 
NewSubmodular   [phase1]     0 / 0.00 [rLC]     0 / 0.00 [rUC]     0 / 0.00 [sLC]     0 / 0.00 [sUC]     0 / 0.00 
PMP             [phase1]     0 / 0.00 [rLC]     5 / 2.90 [rUC]     2 / 1.86 [sLC]     4 / 2.39 [sUC]    13 / 9.59 
Separation Round: [phase1] 0  [rLC] 5  [rUC] 2  [sLC] 4  [sUC] 13
Root Best Bound 1002.068783
Root Best Integer: 1000.823091
Best Bound: 1002.030712
Best Integer: 1002.030712

